1 1
1 1
1 1
2 1
2 1
2 1
3 1
3 1
3 1
4 1
4 1
4 1
5 1
5 1
5 1
6 2
6 2
6 2
7 2
7 2
7 2
8 2
8 2
8 2
9 2
9 2
9 2
10 2
10 2
10 2
11 2
11 2
11 2
12 2
12 2
12 2
13 2
13 2
13 2
14 2
14 2
14 2
15 2
15 2
15 2
16 2
16 2
16 2
17 3
17 3
17 3
18 3
18 3
18 3
19 3
19 3
19 3
20 3
20 3
20 3
21 3
21 3
21 3
22 3
22 3
22 3
23 3
23 3
23 3
24 3
24 3
24 3
25 3
25 3
25 3
26 3
26 3
26 3
27 3
27 3
27 3
28 3
28 3
28 3
29 3
29 3
29 3
30 3
30 4
30 3
31 3
31 4
31 3
32 3
32 4
32 3
33 3
33 4
33 3
34 3
34 4
34 3
35 3
35 4
35 3
36 3
36 4
36 3
37 3
37 4
37 3
38 3
38 4
38 3
39 3
39 4
39 3
40 3
40 4
40 4
41 3
41 4
41 4
42 3
42 4
42 4
43 3
43 4
43 4
44 3
44 4
44 4
45 3
45 4
45 4
46 3
46 4
46 4
47 3
47 4
47 4
48 3
48 4
48 4
49 3
49 4
49 4
50 3
50 4
50 4
51 3
51 4
51 4
52 3
52 4
52 4
53 3
53 4
53 4
54 3
54 4
54 4
55 3
55 4
55 4
56 3
56 4
56 4
57 3
57 4
57 4
58 3
58 4
58 4
59 3
59 4
59 4
60 3
60 4
60 4
61 3
61 4
61 4
62 3
62 4
62 4
63 3
63 4
63 4
64 3
64 4
64 4
65 3
65 4
65 4
66 3
66 4
66 4
67 3
67 4
67 4
68 3
68 4
68 4
69 3
69 4
69 4
70 3
70 4
70 4
71 3
71 4
71 4
72 3
72 4
72 4
73 3
73 4
73 4
74 3
74 4
74 4
75 3
75 4
75 4
76 3
76 4
76 4
77 3
77 4
77 4
78 3
78 4
78 4
79 4
79 4
79 4
80 4
80 4
80 4
81 4
81 4
81 4
82 4
82 4
82 4
83 4
83 4
83 4
84 4
84 4
84 4
85 4
85 4
85 4
86 4
86 4
86 4
87 4
87 4
87 4
88 4
88 4
88 4
89 4
89 4
89 4
90 4
90 4
90 4
91 4
91 4
91 4
92 4
92 4
92 4
93 4
93 4
93 4
94 4
94 4
94 4
95 4
95 4
95 4
96 4
96 4
96 4
97 4
97 4
97 4
98 4
98 4
98 4
99 4
99 4
99 4
100 4
100 4
100 4
101 4
101 4
101 4
102 4
102 4
102 4
103 4
103 4
103 4
104 4
104 4
104 4
105 4
105 4
105 4
106 4
106 4
106 4
107 4
107 4
107 4
108 4
108 4
108 4
109 4
109 4
109 4
110 4
110 4
110 4
111 4
111 4
111 4
112 4
112 4
112 4
113 4
113 4
113 4
114 4
114 4
114 4
